NAME : MM29_depots
COMMENT : Instance 29 in MD algorithm. Coordinates of depots and vhcl speeds given.
TYPE : TSP
DIMENSION : 4
EDGE_WEIGHT_TYPE : ATT
NODE_COORD_SECTION
351 64.8590 93.2912 1
352 64.8590 93.2912 1
353 47.4655 9.6444 1
354 47.4655 9.6444 1
EOF
